CLW06
Position Depot: Random
Horizon for Depot: Large
Position of customers: Cluster
Distribution of the demand: Large
Width of time windows: Wide
Distribution of the service: Large

VEHICLE 
NUMBER 	 CAPACITY 
 7 	 	 347 
 
CUSTOMER
CUST NO. 	 XCOORD.  	 YCOORD. 	 DEMAND 	 READY TIME 	 DUE DATE 	 SERVICE TIME 
 0 	 	 896 	 	 278 	 	 0 	 	 0 	 	 3394 	 	 0 
  1 	 	 80 	 	 493 	 	 5 	 	 1314 	 	 1672 	 	 128 
  2 	 	 502 	 	 752 	 	 96 	 	 2848 	 	 3124 	 	 181 
  3 	 	 616 	 	 619 	 	 58 	 	 3153 	 	 3383 	 	 132 
  4 	 	 617 	 	 649 	 	 41 	 	 760 	 	 993 	 	 121 
  5 	 	 121 	 	 585 	 	 92 	 	 714 	 	 916 	 	 173 
  6 	 	 492 	 	 644 	 	 11 	 	 185 	 	 599 	 	 159 
  7 	 	 628 	 	 593 	 	 45 	 	 3041 	 	 3394 	 	 142 
  8 	 	 497 	 	 840 	 	 69 	 	 446 	 	 833 	 	 164 
  9 	 	 507 	 	 508 	 	 15 	 	 200 	 	 497 	 	 141 
  10 	 	 498 	 	 852 	 	 96 	 	 1294 	 	 1763 	 	 134 
  11 	 	 536 	 	 771 	 	 34 	 	 2943 	 	 3303 	 	 116 
  12 	 	 77 	 	 575 	 	 28 	 	 2974 	 	 3394 	 	 130 
  13 	 	 576 	 	 606 	 	 72 	 	 2474 	 	 2813 	 	 109 
  14 	 	 447 	 	 685 	 	 53 	 	 1205 	 	 1426 	 	 146 
  15 	 	 572 	 	 817 	 	 18 	 	 2337 	 	 2723 	 	 117 
  16 	 	 562 	 	 621 	 	 69 	 	 1996 	 	 2213 	 	 152 
  17 	 	 107 	 	 508 	 	 70 	 	 2401 	 	 2765 	 	 138 
  18 	 	 486 	 	 771 	 	 82 	 	 2438 	 	 2874 	 	 148 
  19 	 	 566 	 	 646 	 	 39 	 	 305 	 	 543 	 	 157 
  20 	 	 90 	 	 441 	 	 12 	 	 541 	 	 904 	 	 157 
  21 	 	 594 	 	 614 	 	 29 	 	 2664 	 	 2919 	 	 154 
  22 	 	 56 	 	 548 	 	 79 	 	 3076 	 	 3394 	 	 199 
  23 	 	 553 	 	 750 	 	 92 	 	 2886 	 	 3136 	 	 111 
  24 	 	 595 	 	 557 	 	 13 	 	 1719 	 	 2162 	 	 174 
  25 	 	 681 	 	 568 	 	 16 	 	 1394 	 	 1736 	 	 169 
  26 	 	 16 	 	 476 	 	 97 	 	 2980 	 	 3394 	 	 101 
  27 	 	 660 	 	 713 	 	 22 	 	 2900 	 	 3353 	 	 124 
  28 	 	 695 	 	 593 	 	 9 	 	 1343 	 	 1830 	 	 162 
  29 	 	 518 	 	 557 	 	 87 	 	 2289 	 	 2538 	 	 136 
  30 	 	 547 	 	 866 	 	 83 	 	 1886 	 	 2373 	 	 147 
  31 	 	 512 	 	 708 	 	 26 	 	 1827 	 	 2291 	 	 107 
  32 	 	 520 	 	 673 	 	 42 	 	 1276 	 	 1767 	 	 137 
  33 	 	 506 	 	 761 	 	 71 	 	 1472 	 	 1815 	 	 194 
  34 	 	 638 	 	 593 	 	 83 	 	 1841 	 	 2054 	 	 103 
  35 	 	 608 	 	 587 	 	 54 	 	 2871 	 	 3133 	 	 146 
  36 	 	 616 	 	 625 	 	 63 	 	 697 	 	 1185 	 	 173 
  37 	 	 570 	 	 627 	 	 77 	 	 217 	 	 525 	 	 121 
  38 	 	 217 	 	 661 	 	 91 	 	 585 	 	 857 	 	 183 
  39 	 	 577 	 	 804 	 	 11 	 	 2849 	 	 3160 	 	 139 
  40 	 	 113 	 	 451 	 	 73 	 	 576 	 	 882 	 	 126 
  41 	 	 182 	 	 581 	 	 8 	 	 927 	 	 1149 	 	 132 
  42 	 	 416 	 	 738 	 	 100 	 	 2794 	 	 3273 	 	 171 
  43 	 	 92 	 	 529 	 	 1 	 	 1062 	 	 1332 	 	 120 
  44 	 	 97 	 	 374 	 	 8 	 	 442 	 	 885 	 	 189 
  45 	 	 663 	 	 578 	 	 6 	 	 1045 	 	 1466 	 	 199 
  46 	 	 137 	 	 274 	 	 34 	 	 520 	 	 1010 	 	 180 
  47 	 	 483 	 	 648 	 	 39 	 	 1028 	 	 1381 	 	 107 
  48 	 	 488 	 	 824 	 	 73 	 	 1447 	 	 1834 	 	 150 
  49 	 	 497 	 	 749 	 	 30 	 	 290 	 	 679 	 	 139 
  50 	 	 650 	 	 617 	 	 55 	 	 3183 	 	 3387 	 	 184 
 